
Gurobi 6.0.5 (linux64) logging started Fri Oct 20 12:47:59 2017


Gurobi 6.0.5 (linux64) logging started Fri Oct 20 12:53:14 2017


Gurobi 6.0.5 (linux64) logging started Fri Oct 20 12:56:05 2017


Gurobi 6.0.5 (linux64) logging started Fri Oct 20 12:59:20 2017


Gurobi 6.0.5 (linux64) logging started Fri Oct 20 13:03:08 2017


Gurobi 6.0.5 (linux64) logging started Fri Oct 20 13:07:37 2017


Gurobi 6.0.5 (linux64) logging started Fri Oct 20 13:12:50 2017


Gurobi 6.0.5 (linux64) logging started Fri Oct 20 13:18:47 2017


Gurobi 6.0.5 (linux64) logging started Fri Oct 20 13:25:57 2017

